93 41 23 6 55 13 37 11 67 89 86 81 76 69 24 84 91 94 36 33 1 59 68 30 18 44 35 25 53 71 10 80 27 31 12 49 46 90 82 85 57 38 22 14 62 20 21 66 87 88 72 45 52 19 32 51 17 43 97 48 98 0 2 8 77 74 39 99 54 96 95 61 65 15 26 40 5 47 83 3 56 73 28 79 78 42 9 16 64 29 58 7 92 70 63 60 34 4 50 75